;; produced by z3_gnatprove.drv ;;
(set-info :smt-lib-version 2.5)
(set-info :source |VC generated by SPARK 2014|)
(set-info :category industrial)
(set-info :status unknown)
;;; generated by SMT-LIB2 driver
;;; SMT-LIB2 driver: bit-vectors, common part
;;; SMT-LIB2: integer arithmetic
(declare-sort us_private 0)

(declare-const us_null_ext__ us_private)

(declare-datatypes ()
  ((int__ref (int__refqtmk (int__content Int)))))

(declare-datatypes ()
  ((bool__ref (bool__refqtmk (bool__content Bool)))))

;; "in_range"
(define-fun in_range ((x Int)) Bool
  (and (<= (- 2147483648) x) (<= x 2147483647)))

(declare-sort resource 0)

;; "resource'int"
(declare-fun resourceqtint (resource) Int)

;; "resource'axiom"
(assert
  (forall ((i resource))
    (and (<= 0 (resourceqtint i)) (<= (resourceqtint i) 10000))))

;; "in_range"
(define-fun in_range1 ((x Int)) Bool
  (and (<= 0 x) (<= x 10000)))

;; "to_rep"
(define-fun to_rep ((x resource)) Int
  (resourceqtint x))

;; "of_rep"
(declare-fun of_rep (Int) resource)

;; "inversion_axiom"
(assert
  (forall ((x resource))
    (! (= (of_rep (to_rep x)) x) :pattern ((to_rep x)) )))

;; "range_axiom"
(assert
  (forall ((x resource)) (! (in_range1 (to_rep x)) :pattern ((to_rep x)) )))

;; "coerce_axiom"
(assert
  (forall ((x Int))
    (! (=> (in_range1 x) (= (to_rep (of_rep x)) x)) :pattern ((to_rep
                                                                (of_rep x))) )))

(declare-sort status 0)

;; "in_range"
(define-fun in_range2 ((x Int)) Bool
  (and (<= 0 x) (<= x 1)))

;; "to_rep"
(declare-fun to_rep1 (status) Int)

;; "of_rep"
(declare-fun of_rep1 (Int) status)

;; "inversion_axiom"
(assert
  (forall ((x status))
    (! (= (of_rep1 (to_rep1 x)) x) :pattern ((to_rep1 x)) )))

;; "range_axiom"
(assert
  (forall ((x status)) (! (in_range2 (to_rep1 x)) :pattern ((to_rep1 x)) )))

;; "coerce_axiom"
(assert
  (forall ((x Int))
    (! (=> (in_range2 x) (= (to_rep1 (of_rep1 x)) x)) :pattern ((to_rep1
                                                                  (of_rep1 x))) )))

(declare-datatypes ()
  ((us_split_fields
   (us_split_fieldsqtmk
   (rec__list_mod_allocator__cell__stat status)(rec__list_mod_allocator__cell__next resource)))))

(declare-datatypes ()
  ((us_rep (us_repqtmk (us_split_fields1 us_split_fields)))))

(declare-const value__size Int)

(declare-const object__size Int)

(declare-const alignment Int)

;; "value__size_axiom"
(assert (<= 0 value__size))

;; "object__size_axiom"
(assert (<= 0 object__size))

;; "alignment_axiom"
(assert (<= 0 alignment))

(declare-const list_mod_allocator__cell__stat__first__bit Int)

(declare-const list_mod_allocator__cell__stat__last__bit Int)

(declare-const list_mod_allocator__cell__stat__position Int)

;; "list_mod_allocator__cell__stat__first__bit_axiom"
(assert (<= 0 list_mod_allocator__cell__stat__first__bit))

;; "list_mod_allocator__cell__stat__last__bit_axiom"
(assert
  (< list_mod_allocator__cell__stat__first__bit list_mod_allocator__cell__stat__last__bit))

;; "list_mod_allocator__cell__stat__position_axiom"
(assert (<= 0 list_mod_allocator__cell__stat__position))

(declare-const list_mod_allocator__cell__next__first__bit Int)

(declare-const list_mod_allocator__cell__next__last__bit Int)

(declare-const list_mod_allocator__cell__next__position Int)

;; "list_mod_allocator__cell__next__first__bit_axiom"
(assert (<= 0 list_mod_allocator__cell__next__first__bit))

;; "list_mod_allocator__cell__next__last__bit_axiom"
(assert
  (< list_mod_allocator__cell__next__first__bit list_mod_allocator__cell__next__last__bit))

;; "list_mod_allocator__cell__next__position_axiom"
(assert (<= 0 list_mod_allocator__cell__next__position))

(declare-const dummy us_rep)

(declare-datatypes ()
  ((map__ref (map__refqtmk (map__content (Array Int us_rep))))))

(declare-sort us_rep1 0)

(declare-const value__size1 Int)

(declare-const object__size1 Int)

(declare-const alignment1 Int)

;; "value__size_axiom"
(assert (<= 0 value__size1))

;; "object__size_axiom"
(assert (<= 0 object__size1))

;; "alignment_axiom"
(assert (<= 0 alignment1))

(declare-const dummy1 us_rep1)

;; "last"
(declare-fun last (us_rep1) Int)

;; "in_range"
(define-fun in_range3 ((x Int)) Bool
  (and (<= 0 x) (<= x 2147483647)))

;; "get"
(declare-fun get (us_rep1
  Int) Int)

(declare-sort us_rep2 0)

(declare-const value__size2 Int)

(declare-const object__size2 Int)

(declare-const alignment2 Int)

;; "value__size_axiom"
(assert (<= 0 value__size2))

;; "object__size_axiom"
(assert (<= 0 object__size2))

;; "alignment_axiom"
(assert (<= 0 alignment2))

(declare-const dummy2 us_rep2)

;; "contains"
(declare-fun contains (us_rep2
  Int) Bool)

(declare-datatypes ()
  ((us_split_fields2
   (us_split_fieldsqtmk1
   (rec__list_mod_allocator__m__t__available us_rep1)(rec__list_mod_allocator__m__t__allocated us_rep2)))))

(declare-datatypes ()
  ((us_rep3 (us_repqtmk1 (us_split_fields3 us_split_fields2)))))

(declare-const value__size3 Int)

(declare-const object__size3 Int)

(declare-const alignment3 Int)

;; "value__size_axiom"
(assert (<= 0 value__size3))

;; "object__size_axiom"
(assert (<= 0 object__size3))

;; "alignment_axiom"
(assert (<= 0 alignment3))

(declare-const list_mod_allocator__m__t__available__first__bit Int)

(declare-const list_mod_allocator__m__t__available__last__bit Int)

(declare-const list_mod_allocator__m__t__available__position Int)

;; "list_mod_allocator__m__t__available__first__bit_axiom"
(assert (<= 0 list_mod_allocator__m__t__available__first__bit))

;; "list_mod_allocator__m__t__available__last__bit_axiom"
(assert
  (< list_mod_allocator__m__t__available__first__bit list_mod_allocator__m__t__available__last__bit))

;; "list_mod_allocator__m__t__available__position_axiom"
(assert (<= 0 list_mod_allocator__m__t__available__position))

(declare-const list_mod_allocator__m__t__allocated__first__bit Int)

(declare-const list_mod_allocator__m__t__allocated__last__bit Int)

(declare-const list_mod_allocator__m__t__allocated__position Int)

;; "list_mod_allocator__m__t__allocated__first__bit_axiom"
(assert (<= 0 list_mod_allocator__m__t__allocated__first__bit))

;; "list_mod_allocator__m__t__allocated__last__bit_axiom"
(assert
  (< list_mod_allocator__m__t__allocated__first__bit list_mod_allocator__m__t__allocated__last__bit))

;; "list_mod_allocator__m__t__allocated__position_axiom"
(assert (<= 0 list_mod_allocator__m__t__allocated__position))

(declare-const dummy3 us_rep3)

;; "model"
(declare-fun model1 ((Array Int us_rep)
  Int) us_rep3)

;; "model__function_guard"
(declare-fun model__function_guard (us_rep3
  (Array Int us_rep)
  Int) Bool)

;; "is_well_formed"
(define-fun is_well_formed ((List_mod_allocator__data___data___ (Array Int us_rep)) (List_mod_allocator__first_available___first_available___ Int)) Bool
  (and (ite (not
              (= List_mod_allocator__first_available___first_available___ 0))
         (= (to_rep1
              (rec__list_mod_allocator__cell__stat
                (us_split_fields1
                  (select List_mod_allocator__data___data___ List_mod_allocator__first_available___first_available___)))) 0)
         (distinct 1 0)) (ite (forall ((r Int))
                                (=>
                                  (and (<= 1 r) (<= r 10000))
                                  (=>
                                    (and
                                      (= (to_rep1
                                           (rec__list_mod_allocator__cell__stat
                                             (us_split_fields1
                                               (select List_mod_allocator__data___data___ r)))) 0)
                                      (not
                                        (= (to_rep
                                             (rec__list_mod_allocator__cell__next
                                               (us_split_fields1
                                                 (select List_mod_allocator__data___data___ r)))) 0)))
                                    (= (to_rep1
                                         (rec__list_mod_allocator__cell__stat
                                           (us_split_fields1
                                             (select List_mod_allocator__data___data___ 
                                             (to_rep
                                               (rec__list_mod_allocator__cell__next
                                                 (us_split_fields1
                                                   (select List_mod_allocator__data___data___ r)))))))) 0))))
                           true
                           false)))

;; "model_is_well_formed"
(declare-fun model_is_well_formed (us_rep3
  (Array Int us_rep)
  Int) Bool)

;; "is_valid"
(declare-fun is_valid ((Array Int us_rep)
  Int) Bool)

;; "contains"
(declare-fun contains1 (us_rep1
  Int) Bool)

(declare-const value__size4 Int)

(declare-const object__size4 Int)

(declare-const alignment4 Int)

;; "value__size_axiom"
(assert (<= 0 value__size4))

;; "object__size_axiom"
(assert (<= 0 object__size4))

;; "alignment_axiom"
(assert (<= 0 alignment4))

(declare-const dummy4 Int)

;; "length"
(define-fun length ((param__container us_rep1)) Int
  (- (+ (last param__container) 1) 1))

(declare-const res Int)

(declare-const ma us_rep1)

(declare-const r126b us_rep3)

(declare-const r128b Int)

;; "in_range"
(define-fun in_range4 ((x Int)) Bool
  (and (<= 1 x) (<= x 10000)))

(declare-const value__size5 Int)

(declare-const object__size5 Int)

(declare-const component__size Int)

(declare-const alignment5 Int)

;; "value__size_axiom"
(assert (<= 0 value__size5))

;; "object__size_axiom"
(assert (<= 0 object__size5))

;; "component__size_axiom"
(assert (<= 0 component__size))

;; "alignment_axiom"
(assert (<= 0 alignment5))

;; "last__post_axiom"
(assert
  (forall ((param__container us_rep1))
    (! (in_range3 (last param__container)) :pattern ((last param__container)) )))

;; "get__post_axiom"
(assert
  (forall ((param__container us_rep1))
    (forall ((param__position Int))
      (! (=>
           (and
             (in_range3 param__position)
             (and
               (<= 1 param__position)
               (<= param__position (last param__container))))
           (in_range1 (get param__container param__position))) :pattern (
      (get
        param__container
        param__position)) ))))

;; "contains__post_axiom"
(assert true)

;; "contains__post_axiom"
(assert true)

;; "contains__def_axiom"
(assert
  (forall ((param__s us_rep1))
    (forall ((param__e Int))
      (! (=
           (= (contains1 param__s param__e) true)
           (exists ((i Int))
             (and
               (and (<= 1 i) (<= i (last param__s)))
               (= (get param__s i) param__e)))) :pattern ((contains1
                                                            param__s
                                                            param__e)) ))))

;; "model_is_well_formed__post_axiom"
(assert true)

;; "model_is_well_formed__def_axiom"
(assert
  (forall ((param__m us_rep3))
    (forall ((List_mod_allocator__data___data___ (Array Int us_rep)))
      (forall ((List_mod_allocator__first_available___first_available___ Int))
        (! (=
             (= (model_is_well_formed
                  param__m
                  List_mod_allocator__data___data___
                  List_mod_allocator__first_available___first_available___) true)
             (let ((avail (rec__list_mod_allocator__m__t__available
                            (us_split_fields3 param__m))))
               (let ((alloc (rec__list_mod_allocator__m__t__allocated
                              (us_split_fields3 param__m))))
                 (and
                   (and
                     (and
                       (and
                         (and
                           (and
                             (and
                               (<= (length avail) 10000)
                               (ite (not
                                      (= List_mod_allocator__first_available___first_available___ 0))
                                 (and
                                   (< 0 (length avail))
                                   (= (get avail 1) List_mod_allocator__first_available___first_available___))
                                 (= (length avail) 0)))
                             (forall ((j Int))
                               (=>
                                 (and (<= 1 j) (<= j (last avail)))
                                 (and
                                   (in_range4 (get avail j))
                                   (=>
                                     (< j (last avail))
                                     (= (to_rep
                                          (rec__list_mod_allocator__cell__next
                                            (us_split_fields1
                                              (select List_mod_allocator__data___data___ 
                                              (get
                                                avail
                                                j))))) (get avail (+ j 1))))))))
                           (forall ((j Int))
                             (=>
                               (and (<= 1 j) (<= j (last avail)))
                               (=>
                                 (< 1 j)
                                 (and
                                   (in_range4 (get avail (- j 1)))
                                   (= (get avail j) (to_rep
                                                      (rec__list_mod_allocator__cell__next
                                                        (us_split_fields1
                                                          (select List_mod_allocator__data___data___ 
                                                          (get
                                                            avail
                                                            (- j 1))))))))))))
                         (forall ((j Int))
                           (=>
                             (and (<= 1 j) (<= j (last avail)))
                             (forall ((k Int))
                               (=>
                                 (and (<= 1 k) (<= k (last avail)))
                                 (=> (= (get avail j) (get avail k)) (= j k)))))))
                       (=>
                         (and
                           (not
                             (= List_mod_allocator__first_available___first_available___ 0))
                           (in_range4
                             (to_rep
                               (rec__list_mod_allocator__cell__next
                                 (us_split_fields1
                                   (select List_mod_allocator__data___data___ 
                                   (get
                                     avail
                                     (last avail))))))))
                         (= (contains1
                              avail
                              (to_rep
                                (rec__list_mod_allocator__cell__next
                                  (us_split_fields1
                                    (select List_mod_allocator__data___data___ 
                                    (get
                                      avail
                                      (last avail))))))) true)))
                     (forall ((e Int))
                       (=>
                         (and (in_range1 e) (= (contains alloc e) true))
                         (in_range4 e))))
                   (forall ((r Int))
                     (=>
                       (and (<= 1 r) (<= r 10000))
                       (ite (= (to_rep1
                                 (rec__list_mod_allocator__cell__stat
                                   (us_split_fields1
                                     (select List_mod_allocator__data___data___ r)))) 0)
                         (not (= (contains alloc r) true))
                         (and
                           (not (= (contains1 avail r) true))
                           (= (contains alloc r) true))))))))) :pattern (
        (model_is_well_formed
          param__m
          List_mod_allocator__data___data___
          List_mod_allocator__first_available___first_available___)) )))))

;; "model__post_axiom"
(assert
  (forall ((List_mod_allocator__data___data___ (Array Int us_rep)))
    (forall ((List_mod_allocator__first_available___first_available___ Int))
      (! (=>
           (and
             (in_range1
               List_mod_allocator__first_available___first_available___)
             (= (is_well_formed
                  List_mod_allocator__data___data___
                  List_mod_allocator__first_available___first_available___) true))
           (let ((result (model1
                           List_mod_allocator__data___data___
                           List_mod_allocator__first_available___first_available___)))
             (=>
               (model__function_guard
                 result
                 List_mod_allocator__data___data___
                 List_mod_allocator__first_available___first_available___)
               (= (model_is_well_formed
                    result
                    List_mod_allocator__data___data___
                    List_mod_allocator__first_available___first_available___) true)))) :pattern (
      (model1
        List_mod_allocator__data___data___
        List_mod_allocator__first_available___first_available___)) ))))

;; "is_valid__post_axiom"
(assert true)

;; "is_valid__def_axiom"
(assert
  (forall ((List_mod_allocator__data___data___ (Array Int us_rep)))
    (forall ((List_mod_allocator__first_available___first_available___ Int))
      (! (and
           (model__function_guard
             (model1
               List_mod_allocator__data___data___
               List_mod_allocator__first_available___first_available___)
             List_mod_allocator__data___data___
             List_mod_allocator__first_available___first_available___)
           (and
             (model__function_guard
               (model1
                 List_mod_allocator__data___data___
                 List_mod_allocator__first_available___first_available___)
               List_mod_allocator__data___data___
               List_mod_allocator__first_available___first_available___)
             (and
               (model__function_guard
                 (model1
                   List_mod_allocator__data___data___
                   List_mod_allocator__first_available___first_available___)
                 List_mod_allocator__data___data___
                 List_mod_allocator__first_available___first_available___)
               (=
                 (= (is_valid
                      List_mod_allocator__data___data___
                      List_mod_allocator__first_available___first_available___) true)
                 (and
                   (and
                     (= (is_well_formed
                          List_mod_allocator__data___data___
                          List_mod_allocator__first_available___first_available___) true)
                     (=>
                       (not
                         (= List_mod_allocator__first_available___first_available___ 0))
                       (= (to_rep
                            (rec__list_mod_allocator__cell__next
                              (us_split_fields1
                                (select List_mod_allocator__data___data___ 
                                (get
                                  (rec__list_mod_allocator__m__t__available
                                    (us_split_fields3
                                      (model1
                                        List_mod_allocator__data___data___
                                        List_mod_allocator__first_available___first_available___)))
                                  (last
                                    (rec__list_mod_allocator__m__t__available
                                      (us_split_fields3
                                        (model1
                                          List_mod_allocator__data___data___
                                          List_mod_allocator__first_available___first_available___))))))))) 0)))
                   (forall ((r Int))
                     (=>
                       (and (<= 1 r) (<= r 10000))
                       (=>
                         (= (to_rep1
                              (rec__list_mod_allocator__cell__stat
                                (us_split_fields1
                                  (select List_mod_allocator__data___data___ r)))) 0)
                         (= (contains1
                              (rec__list_mod_allocator__m__t__available
                                (us_split_fields3
                                  (model1
                                    List_mod_allocator__data___data___
                                    List_mod_allocator__first_available___first_available___)))
                              r) true))))))))) :pattern ((is_valid
                                                           List_mod_allocator__data___data___
                                                           List_mod_allocator__first_available___first_available___)) ))))

;; "lemma_contains_equivalent__post_axiom"
(assert
  (forall ((param__container us_rep2))
    (forall ((param__item Int))
      (=>
        (and
          (in_range1 param__item)
          (and
            (= (distinct 1 0) true)
            (not (= (contains param__container param__item) true))))
        (forall ((e Int))
          (=>
            (and (in_range1 e) (= (contains param__container e) true))
            (not (= param__item e))))))))

(declare-const data (Array Int us_rep))

(declare-const first_available Int)

;; "first_available'unused"
(define-fun first_availableqtunused () int__ref
  (int__refqtmk first_available))

;; "data'unused"
(define-fun dataqtunused () map__ref
  (map__refqtmk data))

;; "Assume"
(assert true)

;; "Assume"
(assert (in_range1 first_available))

;; "Assume"
(assert (in_range1 res))

;; "Assume"
(assert (= (is_valid data first_available) true))

;; "o"
(define-fun o () us_rep3
  (model1 data first_available))

;; "H"
(assert (model__function_guard o data first_available))

;; "H"
(assert true)

;; "H"
(assert (= (model_is_well_formed o data first_available) true))

;; "model'result'unused"
(define-fun modelqtresultqtunused () us_rep3
  o)

;; "o"
(define-fun o1 () us_split_fields2
  (us_split_fields3 o))

;; "__split_fields'result'unused"
(define-fun us_split_fieldsqtresultqtunused () us_split_fields2
  o1)

;; "o"
(define-fun o2 () us_rep2
  (rec__list_mod_allocator__m__t__allocated o1))

;; "rec__list_mod_allocator__m__t__allocated'result'unused"
(define-fun rec__list_mod_allocator__m__t__allocatedqtresultqtunused 
  () us_rep2
  o2)

;; "temp___707"
(define-fun temp___707 () Bool
  (contains o2 res))

;; "contains'result'unused"
(define-fun containsqtresultqtunused () Bool
  temp___707)

;; "int__content'result'unused"
(define-fun int__contentqtresultqtunused () Int
  first_available)

;; "map__content'result'unused"
(define-fun map__contentqtresultqtunused () (Array Int us_rep)
  data)

;; "temp___result_726"
(define-fun temp___result_726 () us_rep3
  (model1 data first_available))

;; "model'result'unused"
(define-fun modelqtresultqtunused1 () us_rep3
  temp___result_726)

;; "Assume"
(assert (model__function_guard temp___result_726 data first_available))

;; "int__content'result'unused"
(define-fun int__contentqtresultqtunused1 () Int
  first_available)

;; "map__content'result'unused"
(define-fun map__contentqtresultqtunused1 () (Array Int us_rep)
  data)

;; "temp___result_725"
(define-fun temp___result_725 () us_rep3
  (model1 data first_available))

;; "model'result'unused"
(define-fun modelqtresultqtunused2 () us_rep3
  temp___result_725)

;; "Assume"
(assert (model__function_guard temp___result_725 data first_available))

;; "o"
(define-fun o3 () us_split_fields2
  (us_split_fields3 temp___result_725))

;; "__split_fields'result'unused"
(define-fun us_split_fieldsqtresultqtunused1 () us_split_fields2
  o3)

;; "temp___old_719"
(define-fun temp___old_719 () us_rep2
  (rec__list_mod_allocator__m__t__allocated o3))

;; "rec__list_mod_allocator__m__t__allocated'result'unused"
(define-fun rec__list_mod_allocator__m__t__allocatedqtresultqtunused1 
  () us_rep2
  temp___old_719)

;; "int__content'result'unused"
(define-fun int__contentqtresultqtunused2 () Int
  first_available)

;; "map__content'result'unused"
(define-fun map__contentqtresultqtunused2 () (Array Int us_rep)
  data)

;; "temp___result_724"
(define-fun temp___result_724 () us_rep3
  (model1 data first_available))

;; "model'result'unused"
(define-fun modelqtresultqtunused3 () us_rep3
  temp___result_724)

;; "Assume"
(assert (model__function_guard temp___result_724 data first_available))

;; "o"
(define-fun o4 () us_split_fields2
  (us_split_fields3 temp___result_724))

;; "__split_fields'result'unused"
(define-fun us_split_fieldsqtresultqtunused2 () us_split_fields2
  o4)

;; "temp___old_718"
(define-fun temp___old_718 () us_rep1
  (rec__list_mod_allocator__m__t__available o4))

;; "rec__list_mod_allocator__m__t__available'result'unused"
(define-fun rec__list_mod_allocator__m__t__availableqtresultqtunused 
  () us_rep1
  temp___old_718)

;; "o"
(define-fun o5 () us_rep3
  (model1 data first_available))

;; "H"
(assert (model__function_guard o5 data first_available))

;; "H"
(assert true)

;; "H"
(assert (= (model_is_well_formed o5 data first_available) true))

;; "model'result'unused"
(define-fun modelqtresultqtunused4 () us_rep3
  o5)

;; "o"
(define-fun o6 () us_split_fields2
  (us_split_fields3 o5))

;; "__split_fields'result'unused"
(define-fun us_split_fieldsqtresultqtunused3 () us_split_fields2
  o6)

;; "list_mod_allocator__free__ma__assume"
(define-fun list_mod_allocator__free__ma__assume () us_rep1
  (rec__list_mod_allocator__m__t__available o6))

;; "rec__list_mod_allocator__m__t__available'result'unused"
(define-fun rec__list_mod_allocator__m__t__availableqtresultqtunused1 
  () us_rep1
  list_mod_allocator__free__ma__assume)

;; "Assume"
(assert (= list_mod_allocator__free__ma__assume ma))

;; "Assume"
(assert true)

(declare-const o7 Bool)

(declare-const infix_eqqtresultqtunused Bool)

;; "H"
(assert (= infix_eqqtresultqtunused (ite (= res 0) true false)))

(declare-const map__contentqtresultqtunused3 (Array Int us_rep))

(declare-const o8 us_rep)

(declare-const getqtresultqtunused us_rep)

(declare-const o9 us_split_fields)

(declare-const us_split_fieldsqtresultqtunused4 us_split_fields)

(declare-const o10 status)

(declare-const rec__list_mod_allocator__cell__statqtresultqtunused status)

(declare-const o11 Int)

(declare-const to_repqtresultqtunused Int)

(declare-const infix_eqqtresultqtunused1 Bool)

;; "H"
(assert
  (ite (not (= res 0))
    (and
      (and (<= 1 res) (<= res 10000))
      (and
        (= map__contentqtresultqtunused3 data)
        (and
          (= o8 (select data res))
          (and
            (= getqtresultqtunused o8)
            (and
              (= o9 (us_split_fields1 o8))
              (and
                (= us_split_fieldsqtresultqtunused4 o9)
                (and
                  (= o10 (rec__list_mod_allocator__cell__stat o9))
                  (and
                    (= rec__list_mod_allocator__cell__statqtresultqtunused 
                    o10)
                    (and
                      (= (to_rep1 o10) o11)
                      (and
                        (= to_repqtresultqtunused o11)
                        (and
                          (= o7 (ite (= o11 1) true false))
                          (= infix_eqqtresultqtunused1 o7))))))))))))
    (= o7 false)))

(declare-const spark__branch Bool)

;; "spark__branch'unused"
(define-fun spark__branchqtunused () bool__ref
  (bool__refqtmk spark__branch))

;; "H"
(assert (= spark__branch o7))

;; "bool__content'result'unused"
(define-fun bool__contentqtresultqtunused () Bool
  spark__branch)

;; "H"
(assert (= spark__branch true))

;; "int__content'result'unused"
(define-fun int__contentqtresultqtunused3 () Int
  first_available)

(declare-const o12 resource)

;; "Ensures"
(assert (= (to_rep o12) first_available))

;; "of_rep'result'unused"
(define-fun of_repqtresultqtunused () resource
  o12)

(declare-const o13 status)

;; "Ensures"
(assert (= (to_rep1 o13) 0))

;; "of_rep'result'unused"
(define-fun of_repqtresultqtunused1 () status
  o13)

;; "o"
(define-fun o14 () us_split_fields
  (us_split_fieldsqtmk o13 o12))

;; "__split_fields'mk'result'unused"
(define-fun us_split_fieldsqtmkqtresultqtunused () us_split_fields
  o14)

;; "o"
(define-fun o15 () us_rep
  (us_repqtmk o14))

;; "__rep'mk'result'unused"
(define-fun us_repqtmkqtresultqtunused () us_rep
  o15)

;; "Assert"
(assert (and (<= 1 res) (<= res 10000)))

;; "map__content'result'unused"
(define-fun map__contentqtresultqtunused4 () (Array Int us_rep)
  data)

;; "o"
(define-fun o16 () (Array Int us_rep)
  (store data res o15))

;; "set'result'unused"
(define-fun setqtresultqtunused () (Array Int us_rep)
  o16)

(declare-const data1 (Array Int us_rep))

;; "data'unused"
(define-fun dataqtunused1 () map__ref
  (map__refqtmk data1))

;; "H"
(assert (= data1 o16))

(declare-const first_available1 Int)

;; "first_available'unused"
(define-fun first_availableqtunused1 () int__ref
  (int__refqtmk first_available1))

;; "H"
(assert (= first_available1 res))

;; "list_mod_allocator__free__R126b__assume"
(define-fun list_mod_allocator__free__R126b__assume () us_rep3
  (model1 data1 first_available1))

;; "H"
(assert
  (model__function_guard
    list_mod_allocator__free__R126b__assume
    data1
    first_available1))

;; "H"
(assert true)

;; "H"
(assert
  (= (model_is_well_formed
       list_mod_allocator__free__R126b__assume
       data1
       first_available1) true))

;; "model'result'unused"
(define-fun modelqtresultqtunused5 () us_rep3
  list_mod_allocator__free__R126b__assume)

;; "Assume"
(assert (= list_mod_allocator__free__R126b__assume r126b))

;; "Assume"
(assert true)

;; "list_mod_allocator__free__B127b__L_4__R128b__assume"
(define-fun list_mod_allocator__free__B127b__L_4__R128b__assume () Int
  (last ma))

;; "Ensures"
(assert (in_range3 list_mod_allocator__free__B127b__L_4__R128b__assume))

;; "last'result'unused"
(define-fun lastqtresultqtunused () Int
  list_mod_allocator__free__B127b__L_4__R128b__assume)

;; "Assume"
(assert (= list_mod_allocator__free__B127b__L_4__R128b__assume r128b))

;; "Assume"
(assert (in_range3 r128b))

;; "temp___712"
(define-fun temp___712 () Int
  r128b)

(declare-const i Int)

;; "i'unused"
(define-fun iqtunused () int__ref
  (int__refqtmk i))

;; "H"
(assert (= i 1))

;; "int__content'result'unused"
(define-fun int__contentqtresultqtunused4 () Int
  i)

;; "o"
(define-fun o17 () Bool
  (ite (<= i temp___712) true false))

;; "infix <='result'unused"
(define-fun infix_lseqqtresultqtunused () Bool
  o17)

;; "int__content'result'unused"
(define-fun int__contentqtresultqtunused5 () Int
  i)

;; "o"
(define-fun o18 () Bool
  (ite (<= 1 i) true false))

;; "infix <='result'unused"
(define-fun infix_lseqqtresultqtunused1 () Bool
  o18)

;; "o"
(define-fun o19 () Bool
  (and o18 o17))

;; "andb'result'unused"
(define-fun andbqtresultqtunused () Bool
  o19)

;; "H"
(assert (= o19 true))

;; "int__content'result'unused"
(define-fun int__contentqtresultqtunused6 () Int
  i)

;; "o"
(define-fun o20 () Int
  (+ i 1))

;; "infix +'result'unused"
(define-fun infix_plqtresultqtunused () Int
  o20)

;; "Ensures"
(assert (in_range o20))

;; "range_check_'result'unused"
(define-fun range_check_qtresultqtunused () Int
  o20)

;; "o"
(define-fun o21 () us_split_fields2
  (us_split_fields3 r126b))

;; "__split_fields'result'unused"
(define-fun us_split_fieldsqtresultqtunused5 () us_split_fields2
  o21)

;; "o"
(define-fun o22 () us_rep1
  (rec__list_mod_allocator__m__t__available o21))

;; "rec__list_mod_allocator__m__t__available'result'unused"
(define-fun rec__list_mod_allocator__m__t__availableqtresultqtunused2 
  () us_rep1
  o22)

;; "o"
(define-fun o23 () Int
  (last o22))

;; "Ensures"
(assert (in_range3 o23))

;; "last'result'unused"
(define-fun lastqtresultqtunused1 () Int
  o23)

;; "infix >='result'unused"
(define-fun infix_gteqqtresultqtunused () Bool
  (ite (<= o20 o23) true false))

(declare-const i1 Int)

;; "i'unused"
(define-fun iqtunused1 () int__ref
  (int__refqtmk i1))

;; "LoopInvariant"
(assert
  (<= (+ i1 1) (last
                 (rec__list_mod_allocator__m__t__available
                   (us_split_fields3 r126b)))))

;; "LoopInvariant"
(assert
  (forall ((j Int))
    (=>
      (and (<= 1 j) (<= j i1))
      (= (get ma j) (get
                      (rec__list_mod_allocator__m__t__available
                        (us_split_fields3 r126b))
                      (+ j 1))))))

;; "LoopInvariant"
(assert
  (forall ((j Int))
    (=>
      (and (<= 2 j) (<= j (+ i1 1)))
      (= (get ma (- j 1)) (get
                            (rec__list_mod_allocator__m__t__available
                              (us_split_fields3 r126b))
                            j)))))

;; "Assume"
(assert (and (<= 1 i1) (<= i1 r128b)))

;; "int__content'result'unused"
(define-fun int__contentqtresultqtunused7 () Int
  i1)

;; "infix ='result'unused"
(define-fun infix_eqqtresultqtunused2 () Bool
  (ite (= i1 temp___712) true false))

;; "H"
(assert (not (= i1 temp___712)))

;; "int__content'result'unused"
(define-fun int__contentqtresultqtunused8 () Int
  i1)

;; "o"
(define-fun o24 () Int
  (+ i1 1))

;; "infix +'result'unused"
(define-fun infix_plqtresultqtunused1 () Int
  o24)

(declare-const i2 Int)

;; "i'unused"
(define-fun iqtunused2 () int__ref
  (int__refqtmk i2))

;; "H"
(assert (= i2 o24))

;; "int__content'result'unused"
(define-fun int__contentqtresultqtunused9 () Int
  i2)

;; "o"
(define-fun o25 () Int
  (+ i2 1))

;; "infix +'result'unused"
(define-fun infix_plqtresultqtunused2 () Int
  o25)

;; "Ensures"
(assert (in_range o25))

;; "range_check_'result'unused"
(define-fun range_check_qtresultqtunused1 () Int
  o25)

;; "o"
(define-fun o26 () us_split_fields2
  (us_split_fields3 r126b))

;; "__split_fields'result'unused"
(define-fun us_split_fieldsqtresultqtunused6 () us_split_fields2
  o26)

;; "o"
(define-fun o27 () us_rep1
  (rec__list_mod_allocator__m__t__available o26))

;; "rec__list_mod_allocator__m__t__available'result'unused"
(define-fun rec__list_mod_allocator__m__t__availableqtresultqtunused3 
  () us_rep1
  o27)

;; "o"
(define-fun o28 () Int
  (last o27))

;; "Ensures"
(assert (in_range3 o28))

;; "last'result'unused"
(define-fun lastqtresultqtunused2 () Int
  o28)

;; "infix >='result'unused"
(define-fun infix_gteqqtresultqtunused1 () Bool
  (ite (<= o25 o28) true false))

(declare-const usf Int)

(declare-const anyqtresultqtunused Int)

;; "H"
(assert (= anyqtresultqtunused usf))

(declare-const jqtunused Int)

;; "H"
(assert (= jqtunused usf))

(declare-const int__contentqtresultqtunused10 Int)

;; "H"
(assert (= int__contentqtresultqtunused10 i2))

(declare-const o29 Bool)

;; "H"
(assert (= o29 (ite (<= usf i2) true false)))

(declare-const infix_lseqqtresultqtunused2 Bool)

;; "H"
(assert (= infix_lseqqtresultqtunused2 o29))

(declare-const o30 Bool)

;; "H"
(assert (= o30 (ite (<= 1 usf) true false)))

(declare-const infix_lseqqtresultqtunused3 Bool)

;; "H"
(assert (= infix_lseqqtresultqtunused3 o30))

(declare-const andbqtresultqtunused1 Bool)

;; "H"
(assert (= andbqtresultqtunused1 (and o30 o29)))

;; "_f'unused"
(define-fun usfqtunused () Bool
  (ite (forall ((j Int))
         (=>
           (and (<= 1 j) (<= j i2))
           (= (get ma j) (get
                           (rec__list_mod_allocator__m__t__available
                             (us_split_fields3 r126b))
                           (+ j 1)))))
    true
    false))

;; "any'result'unused"
(define-fun anyqtresultqtunused1 () Bool
  (ite (forall ((j Int))
         (=>
           (and (<= 1 j) (<= j i2))
           (= (get ma j) (get
                           (rec__list_mod_allocator__m__t__available
                             (us_split_fields3 r126b))
                           (+ j 1)))))
    true
    false))

(declare-const usf1 Int)

;; "any'result'unused"
(define-fun anyqtresultqtunused2 () Int
  usf1)

;; "j'unused"
(define-fun jqtunused1 () Int
  usf1)

;; "int__content'result'unused"
(define-fun int__contentqtresultqtunused11 () Int
  i2)

;; "o"
(define-fun o31 () Int
  (+ i2 1))

;; "infix +'result'unused"
(define-fun infix_plqtresultqtunused3 () Int
  o31)

;; "Ensures"
(assert (in_range o31))

;; "range_check_'result'unused"
(define-fun range_check_qtresultqtunused2 () Int
  o31)

;; "o"
(define-fun o32 () Bool
  (ite (<= usf1 o31) true false))

;; "infix <='result'unused"
(define-fun infix_lseqqtresultqtunused4 () Bool
  o32)

;; "o"
(define-fun o33 () Bool
  (ite (<= 2 usf1) true false))

;; "infix <='result'unused"
(define-fun infix_lseqqtresultqtunused5 () Bool
  o33)

;; "o"
(define-fun o34 () Bool
  (and o33 o32))

;; "andb'result'unused"
(define-fun andbqtresultqtunused2 () Bool
  o34)

;; "H"
(assert (= o34 true))

;; "o"
(define-fun o35 () us_split_fields2
  (us_split_fields3 r126b))

;; "__split_fields'result'unused"
(define-fun us_split_fieldsqtresultqtunused7 () us_split_fields2
  o35)

;; "o"
(define-fun o36 () us_rep1
  (rec__list_mod_allocator__m__t__available o35))

;; "rec__list_mod_allocator__m__t__available'result'unused"
(define-fun rec__list_mod_allocator__m__t__availableqtresultqtunused4 
  () us_rep1
  o36)

;; Goal "def'vc"
;; File "list_mod_allocator.ads", line 104, characters 0-0
(assert
  (not (<= usf1 (last o36))))

(check-sat)
